p cnf 123 308
-110 2 0
2 -109 3 0
2 3 6 0
2 101 3 0
-2 -3 0
-2 -101 109 -6 0
3 111 -5 0
3 98 111 -4 0
-3 -111 0
-3 -98 5 0
-3 4 5 0
4 109 114 0
-4 -109 0
-4 -114 0
5 105 106 115 0
-5 -105 0
-5 -115 0
-5 -106 0
6 -112 -114 0
-6 112 0
-6 114 0
115 8 0
8 9 10 -11 0
8 104 10 -11 0
-8 11 0
-8 -10 0
-8 -104 -9 0
9 -105 -110 -114 0
-9 105 0
-9 110 0
-9 114 0
10 104 109 111 117 0
-10 -117 0
-10 -111 0
-10 -104 0
-10 -109 0
11 12 13 0
11 117 12 0
11 119 12 0
-11 -12 0
-11 -117 -119 -13 0
12 -105 -109 110 -113 0
-12 113 0
-12 105 0
-12 109 0
-12 -110 0
13 101 -105 0
-13 -101 0
-13 105 0
121 15 0
118 18 0
15 16 17 0
15 -108 17 0
15 -109 17 0
-15 -17 0
-15 108 109 -16 0
16 -110 119 0
-16 110 0
-16 -119 0
17 -99 107 -110 111 0
-17 110 0
-17 -111 0
-17 99 0
-17 -107 0
18 19 20 0
18 -99 20 0
18 -106 20 0
-18 -20 0
-18 99 106 -19 0
19 -110 111 0
-19 110 0
-19 -111 0
20 -101 108 -110 -112 0
-20 112 0
-20 101 0
-20 110 0
-20 -108 0
105 111 25 0
116 -23 0
116 -24 0
23 97 -109 -111 114 0
-23 -97 0
-23 -114 0
-23 111 0
-23 109 0
24 -97 98 112 113 0
-24 -113 0
-24 -112 0
-24 97 0
-24 -98 0
25 114 26 0
25 -109 26 0
25 117 26 0
-25 -26 0
-25 109 -114 -117 0
26 -106 -114 -118 0
-26 106 0
-26 114 0
-26 118 0
-111 28 0
28 -106 30 0
28 -119 30 0
28 -29 30 0
-28 -30 0
-28 106 119 29 0
29 -100 -120 0
29 -109 121 0
29 -100 -109 0
29 -120 121 0
-29 100 -121 0
-29 109 120 0
30 -97 107 110 -121 0
-30 121 0
-30 -110 0
-30 97 0
-30 -107 0
122 32 0
32 33 34 35 36 0
-32 -36 0
-32 -35 0
-32 -33 0
-32 -34 0
33 98 102 114 119 0
-33 -119 0
-33 -114 0
-33 -98 0
-33 -102 0
34 -97 109 110 -119 0
-34 119 0
-34 -110 0
-34 97 0
-34 -109 0
35 101 -106 112 -121 0
-35 106 0
-35 -112 0
-35 -101 0
-35 121 0
36 104 -107 113 121 0
-36 107 0
-36 -121 0
-36 -104 0
-36 -113 0
-99 -102 113 -38 0
38 110 117 0
-38 -110 0
-38 -117 0
-99 118 -9 0
113 114 -119 -41 0
41 102 -103 0
-41 -102 0
-41 103 0
-110 -119 -122 -46 0
46 98 -109 0
-46 -98 0
-46 109 0
-109 -110 -111 120 0
105 -107 -49 0
49 110 121 -122 0
-49 122 0
-49 -121 0
-49 -110 0
119 -121 123 -51 0
51 -100 103 0
-51 100 0
-51 -103 0
-99 -57 0
-99 -56 0
121 -55 0
121 -51 -54 0
54 -118 -122 0
-54 118 0
-54 122 0
55 -99 109 116 -122 0
-55 122 0
-55 -116 0
-55 99 0
-55 -109 0
56 104 111 114 -123 0
-56 123 0
-56 -114 0
-56 -104 0
-56 -111 0
57 -109 -118 121 122 0
-57 118 0
-57 -122 0
-57 109 0
-57 -121 0
-38 -59 0
59 -98 109 -120 0
-59 98 0
-59 -109 0
-59 120 0
-110 -116 122 -61 0
61 -99 -102 0
-61 99 0
-61 102 0
98 108 -65 0
116 117 122 -64 0
64 97 106 0
-64 -97 0
-64 -106 0
65 -114 -119 120 0
-65 114 0
-65 119 0
-65 -120 0
-101 -106 -67 0
67 111 120 123 0
-67 -111 0
-67 -123 0
-67 -120 0
-110 -118 119 -46 0
119 -6 -13 0
-104 -111 119 -71 0
71 -99 118 0
-71 99 0
-71 -118 0
-113 76 0
-99 -75 0
-99 -54 -74 0
74 -104 112 0
-74 104 0
-74 -112 0
75 108 -114 117 -122 0
-75 114 0
-75 -117 0
-75 -108 0
-75 122 0
76 122 0
76 -118 77 0
76 118 78 0
-76 118 -122 -78 0
-76 -118 -122 -77 0
77 -104 -105 0
-77 104 0
-77 105 0
78 100 103 0
-78 -100 0
-78 -103 0
-115 -122 83 0
-118 -81 0
118 -82 0
81 99 109 114 122 0
-81 -122 0
-81 -114 0
-81 -99 0
-81 -109 0
82 -104 109 112 122 0
-82 -122 0
-82 -112 0
-82 104 0
-82 -109 0
83 108 84 0
83 -98 84 0
83 -114 84 0
-83 -84 0
-83 98 -108 114 0
84 -97 99 -117 0
-84 97 0
-84 -99 0
-84 117 0
-123 -86 0
123 88 0
-123 -87 0
86 98 103 114 -116 0
-86 116 0
-86 -114 0
-86 -98 0
-86 -103 0
87 -103 -107 -112 115 0
-87 112 0
-87 -115 0
-87 103 0
-87 107 0
88 109 89 0
88 -103 89 0
88 38 89 0
-88 -89 0
-88 103 -109 -38 0
89 -100 101 -114 -117 0
-89 117 0
-89 100 0
-89 114 0
-89 -101 0
123 -91 0
123 -92 0
91 98 99 116 -119 0
-91 119 0
-91 -116 0
-91 -98 0
-91 -99 0
92 -100 -105 114 -118 0
-92 118 0
-92 100 0
-92 105 0
-92 -114 0
122 -96 0
122 -94 -95 0
94 105 106 0
-94 -105 0
-94 -106 0
95 119 123 0
-95 -119 0
-95 -123 0
96 -101 -107 118 123 0
-96 107 0
-96 -123 0
-96 101 0
-96 -118 0
